NAME F-JSSP-SDST
ROWS
 N  OBJ
 E  c0      
 E  c1      
 E  c2      
 E  c3      
 L  c4      
 L  c5      
 L  c6      
 L  c7      
 L  c8      
 L  c9      
 L  c10     
 L  c11     
 G  c12     
 G  c13     
 G  c14     
 G  c15     
 G  c16     
 G  c17     
 G  c18     
 G  c19     
 G  c20     
 G  c21     
 G  c22     
 G  c23     
 G  c24     
 G  c25     
 G  c26     
 G  c27     
 G  c28     
 G  c29     
 G  c30     
 G  c31     
 G  c32     
 G  c33     
 G  c34     
 G  c35     
 G  c36     
 G  c37     
 G  c38     
 G  c39     
 G  c40     
 G  c41     
 G  c42     
 G  c43     
 G  c44     
 G  c45     
 G  c46     
 G  c47     
 G  c48     
 G  c49     
 E  c50     
COLUMNS
    MARKER    'MARKER'                 'INTORG'
    B0(9)     c0        1
    B0(9)     c4        -65000
    B0(9)     c12       -25
    B0(9)     c13       -65025
    B0(9)     c14       -25
    B0(9)     c18       -65000
    B0(9)     c19       -65000
    B0(9)     c22       -65000
    B0(9)     c23       -65000
    B1(9)     c0        1
    B1(9)     c5        -65000
    B1(9)     c12       -37
    B1(9)     c13       -37
    B1(9)     c14       -65037
    B1(9)     c20       -65000
    B1(9)     c21       -65000
    B1(9)     c24       -65000
    B1(9)     c25       -65000
    B2(8)     c1        1
    B2(8)     c6        -65000
    B2(8)     c13       -65000
    B2(8)     c26       -65000
    B2(8)     c27       -65000
    B2(8)     c30       -65000
    B2(8)     c31       -65000
    B2(8)     c50       -32
    B3(8)     c1        1
    B3(8)     c7        -65000
    B3(8)     c14       -65000
    B3(8)     c28       -65000
    B3(8)     c29       -65000
    B3(8)     c32       -65000
    B3(8)     c33       -65000
    B3(8)     c50       -24
    B4(9)     c2        1
    B4(9)     c8        -65000
    B4(9)     c15       -45
    B4(9)     c16       -65045
    B4(9)     c17       -45
    B4(9)     c18       -65000
    B4(9)     c19       -65000
    B4(9)     c26       -65000
    B4(9)     c27       -65000
    B5(9)     c2        1
    B5(9)     c9        -65000
    B5(9)     c15       -65
    B5(9)     c16       -65
    B5(9)     c17       -65065
    B5(9)     c20       -65000
    B5(9)     c21       -65000
    B5(9)     c28       -65000
    B5(9)     c29       -65000
    B6(8)     c3        1
    B6(8)     c10       -65000
    B6(8)     c16       -65000
    B6(8)     c22       -65000
    B6(8)     c23       -65000
    B6(8)     c30       -65000
    B6(8)     c31       -65000
    B6(8)     c50       -21
    B7(8)     c3        1
    B7(8)     c11       -65000
    B7(8)     c17       -65000
    B7(8)     c24       -65000
    B7(8)     c25       -65000
    B7(8)     c32       -65000
    B7(8)     c33       -65000
    B7(8)     c50       -65
    B8(2)     c18       -65000
    B8(2)     c19       65000
    B9(2)     c20       -65000
    B9(2)     c21       65000
    B10(2)    c22       -65000
    B10(2)    c23       65000
    B11(2)    c24       -65000
    B11(2)    c25       65000
    B12(2)    c26       -65000
    B12(2)    c27       65000
    B13(2)    c28       -65000
    B13(2)    c29       65000
    B14(2)    c30       -65000
    B14(2)    c31       65000
    B15(2)    c32       -65000
    B15(2)    c33       65000
    I16(10)   c4        1
    I16(10)   c12       -1
    I16(10)   c13       -1
    I16(10)   c14       -1
    I16(10)   c18       1
    I16(10)   c19       -1
    I16(10)   c22       1
    I16(10)   c23       -1
    I16(10)   c34       1
    I16(10)   c35       1
    I17(10)   c5        1
    I17(10)   c12       -1
    I17(10)   c13       -1
    I17(10)   c14       -1
    I17(10)   c20       1
    I17(10)   c21       -1
    I17(10)   c24       1
    I17(10)   c25       -1
    I17(10)   c36       1
    I17(10)   c37       1
    I18(11)   c6        1
    I18(11)   c12       1
    I18(11)   c13       1
    I18(11)   c14       1
    I18(11)   c26       1
    I18(11)   c27       -1
    I18(11)   c30       1
    I18(11)   c31       -1
    I18(11)   c38       1
    I18(11)   c39       1
    I18(11)   c50       -1
    I19(11)   c7        1
    I19(11)   c12       1
    I19(11)   c13       1
    I19(11)   c14       1
    I19(11)   c28       1
    I19(11)   c29       -1
    I19(11)   c32       1
    I19(11)   c33       -1
    I19(11)   c40       1
    I19(11)   c41       1
    I19(11)   c50       -1
    I20(10)   c8        1
    I20(10)   c15       -1
    I20(10)   c16       -1
    I20(10)   c17       -1
    I20(10)   c18       -1
    I20(10)   c19       1
    I20(10)   c26       -1
    I20(10)   c27       1
    I20(10)   c42       1
    I20(10)   c43       1
    I21(10)   c9        1
    I21(10)   c15       -1
    I21(10)   c16       -1
    I21(10)   c17       -1
    I21(10)   c20       -1
    I21(10)   c21       1
    I21(10)   c28       -1
    I21(10)   c29       1
    I21(10)   c44       1
    I21(10)   c45       1
    I22(11)   c10       1
    I22(11)   c15       1
    I22(11)   c16       1
    I22(11)   c17       1
    I22(11)   c22       -1
    I22(11)   c23       1
    I22(11)   c30       -1
    I22(11)   c31       1
    I22(11)   c46       1
    I22(11)   c47       1
    I22(11)   c50       -1
    I23(11)   c11       1
    I23(11)   c15       1
    I23(11)   c16       1
    I23(11)   c17       1
    I23(11)   c24       -1
    I23(11)   c25       1
    I23(11)   c32       -1
    I23(11)   c33       1
    I23(11)   c48       1
    I23(11)   c49       1
    I23(11)   c50       -1
    I24(1)    OBJ       1
    I24(1)    c50       1
    MARKER    'MARKER'                 'INTEND'
RHS
    RHS1      c0        1
    RHS1      c1        1
    RHS1      c2        1
    RHS1      c3        1
    RHS1      c13       -129997
    RHS1      c14       -129997
    RHS1      c16       -129996
    RHS1      c17       -129996
    RHS1      c18       -194952
    RHS1      c19       -129971
    RHS1      c20       -194932
    RHS1      c21       -129959
    RHS1      c22       -194975
    RHS1      c23       -129971
    RHS1      c24       -194932
    RHS1      c25       -129960
    RHS1      c26       -194952
    RHS1      c27       -129964
    RHS1      c28       -194932
    RHS1      c29       -129973
    RHS1      c30       -194975
    RHS1      c31       -129964
    RHS1      c32       -194931
    RHS1      c33       -129973
BOUNDS
 BV BND1      B0(9)   
 BV BND1      B1(9)   
 BV BND1      B2(8)   
 BV BND1      B3(8)   
 BV BND1      B4(9)   
 BV BND1      B5(9)   
 BV BND1      B6(8)   
 BV BND1      B7(8)   
 BV BND1      B8(2)   
 BV BND1      B9(2)   
 BV BND1      B10(2)  
 BV BND1      B11(2)  
 BV BND1      B12(2)  
 BV BND1      B13(2)  
 BV BND1      B14(2)  
 BV BND1      B15(2)  
 LI BND1      I16(10)   0
 LI BND1      I17(10)   0
 LI BND1      I18(11)   0
 LI BND1      I19(11)   0
 LI BND1      I20(10)   0
 LI BND1      I21(10)   0
 LI BND1      I22(11)   0
 LI BND1      I23(11)   0
 LI BND1      I24(1)    0
ENDATA
